21237
1 0 1 0 1 1 0 1 1 1 1 1 0 1 1 0 1 0 1 0 1 1 1 0 0 1 1 1 0 0
21 27 27 7 5 8 16 18 7 9 26 13 26 14 5 14 16 8 25 5 21 8 27 7 16 22 0 8 5 11 2 13 11 9 4 21 20 8 16 9 25 11 10 18 4 22 20 8 5 7 10 13 8 7 13 21 18 8 13 11 22 13 8 7 9 4 13 10 9 14 4 22 18 10 4 10 7 16 25 7 11 2 10 9 4 21 27 26 11 5 4 13 8 9 4 26 16 18 21 5 11 13 22 9 4 22 0 16 5 13 10 20 16 5 13 10 13 8 7 5 10 20 16 5 13 21 0 8 25 26 10 13 16 7 7 22 20 8 5 25 8 13 18 10 21 10 27 8 25 25